NAME : Unnamed.383.tour
COMMENT : Length = 383
COMMENT : Found by LKH [Keld Helsgaun] Thu Oct 02 13:46:26 2014
TYPE : TOUR
DIMENSION : 21
TOUR_SECTION
1
14
15
19
17
13
18
20
5
16
4
7
11
3
10
8
2
6
12
9
21
-1
EOF
